15	5 
427	4	0	47	4	57	1	71	3	96	2	14
451	4	0	75	1	60	4	22	3	79	2	65
334	4	3	32	0	33	2	69	1	31	4	58
351	2	0	44	1	34	4	51	3	58	2	47
240	2	3	29	1	44	0	62	2	17	4	8
384	2	1	15	2	40	0	97	4	38	3	66
336	2	2	58	1	39	0	57	4	20	3	50
390	2	2	57	3	32	4	87	0	63	1	21
564	2	4	56	0	84	2	90	1	85	3	61
303	2	4	15	0	20	1	67	3	30	2	70
408	2	4	84	0	82	1	23	2	45	3	38
238	2	3	50	2	21	0	18	4	41	1	29
318	1	4	16	1	52	0	52	2	38	3	54
426	1	4	37	0	54	3	57	2	74	1	62
445	1	4	57	1	61	0	81	2	30	3	68
